# Solution for model r3_t18_m1_0 Batch Number: 3
# Finished Task: 18 / 18
# Makespan: 691.0, Total Distance: 649.0, Total Time: 3.5714
# R O S F Batch
0 0 7 0.0 0.0 -1
1 1 13 0.0 0.0 -1
2 2 5 0.0 0.0 -1
3 2 -1 663.0 691.0 2
4 0 11 380.0 417.0 0
5 2 20 282.0 317.0 0
6 1 16 391.0 417.0 0
7 0 15 243.0 268.0 0
8 1 6 326.0 357.0 0
9 0 18 492.0 512.0 1
10 2 17 385.0 405.0 0
11 0 9 417.0 449.0 0
12 1 -1 539.0 563.0 2
13 1 8 240.0 274.0 0
14 2 19 507.0 530.0 2
15 0 4 288.0 326.0 0
16 1 12 461.0 481.0 0
17 2 14 436.0 475.0 0
18 0 -1 529.0 556.0 2
19 2 3 603.0 630.0 2
20 2 10 354.0 375.0 0
